TITL Al-1335257-3591-32 0.0000000672 60.4852777697 -53.2712053111 0 0 8 (P63/mmc) n - 1
REM
REM Run started: at 2024年 08月 28日 星期三 09:21:23 CST in /home/wangxb/wxb/pp3_test/1.1
REM pp3 from code version 0.9.1 bugfix July 2018 build 013d7b7c2542+ Fri, 06 Jul 2018 19:26:36 +0100
REM
REM
REM
REM
REM ./Al.cell (830f3a1d18775956aa944238f1042327)
REM AIRSS Version 0.9.1 bugfix July 2018 build 013d7b7c2542+ Fri, 06 Jul 2018 19:26:36 +0100
REM compiler GCC version 11.3.0
REM options -cpp -imultiarch x86_64-linux-gnu -mtune=generic -march=x86-64 -g -O0 -fpre-include=/usr/include/finclude/math-vector-fortran.h
REM seed 116187439 -1522912740 -1144982854 -1478213755 -888623387 -1678528959 -599127650 2050599036
REM
REM Al.pp (a228ffcbdc33ac12a8acef1e350d2b41)
REM 
CELL 1.54180    3.81639    3.59646    4.40679   89.99998   90.00001   90.00001
LATT -1
SFAC Al 
Al     1  0.6694467919299  0.8566957562490  0.4994000324698 1.0
Al     1  0.0027801324525  0.3566957437674  0.9994000051901 1.0
Al     1  0.1694467881775  0.8566957434176  0.2494000196685 1.0
Al     1  0.5027801345801  0.3566957564711  0.2493999925422 1.0
Al     1  0.1694467926508  0.8566957439648  0.7494000197723 1.0
Al     1  0.5027801342013  0.3566957558707  0.7493999914523 1.0
Al     1  0.0027801366936  0.3566957437949  0.4994000053696 1.0
Al     1  0.6694467893144  0.8566957564646  0.9994000335352 1.0
END
