TITL Al-1335257-3591-30 -0.0000000084 62.2746178188 -51.1878143283 0 0 8 (C2/m) n - 1
REM
REM Run started: at 2024年 08月 28日 星期三 09:21:23 CST in /home/wangxb/wxb/pp3_test/1.1
REM pp3 from code version 0.9.1 bugfix July 2018 build 013d7b7c2542+ Fri, 06 Jul 2018 19:26:36 +0100
REM
REM
REM
REM
REM ./Al.cell (830f3a1d18775956aa944238f1042327)
REM AIRSS Version 0.9.1 bugfix July 2018 build 013d7b7c2542+ Fri, 06 Jul 2018 19:26:36 +0100
REM compiler GCC version 11.3.0
REM options -cpp -imultiarch x86_64-linux-gnu -mtune=generic -march=x86-64 -g -O0 -fpre-include=/usr/include/finclude/math-vector-fortran.h
REM seed -1517058069 1876090815 -1761604399 1227230871 -1412626828 1810889602 419316118 1087813983
REM
REM Al.pp (a228ffcbdc33ac12a8acef1e350d2b41)
REM 
CELL 1.54180    2.18514    5.34569    5.58211  102.86245   78.71290   90.00016
LATT -1
SFAC Al 
Al     1  0.3909647483661  0.2103083908915  0.6260488914692 1.0
Al     1  0.7553023677773  0.0247380699868  0.8973633342145 1.0
Al     1  0.1931748516806  0.3880762751092  0.0216188285618 1.0
Al     1  0.3171663261994  0.6529820341409  0.7736318585289 1.0
Al     1  0.0733791770769  0.1122873498573  0.2612144560543 1.0
Al     1  0.5149562230250  0.4752141498880  0.3780619213420 1.0
Al     1  0.6347518980323  0.7510030751078  0.1384662939542 1.0
Al     1  0.9528287078425  0.8385523550185  0.5023174158752 1.0
END
