TITL Al-1335257-3591-4 0.0000000011 60.5091825452 -53.2326560919 0 0 8 (Fm-3m) n - 1
REM
REM Run started: at 2024年 08月 28日 星期三 09:21:20 CST in /home/wangxb/wxb/pp3_test/1.1
REM pp3 from code version 0.9.1 bugfix July 2018 build 013d7b7c2542+ Fri, 06 Jul 2018 19:26:36 +0100
REM
REM
REM
REM
REM ./Al.cell (830f3a1d18775956aa944238f1042327)
REM AIRSS Version 0.9.1 bugfix July 2018 build 013d7b7c2542+ Fri, 06 Jul 2018 19:26:36 +0100
REM compiler GCC version 11.3.0
REM options -cpp -imultiarch x86_64-linux-gnu -mtune=generic -march=x86-64 -g -O0 -fpre-include=/usr/include/finclude/math-vector-fortran.h
REM seed 1905587616 -1766436734 651121200 412428678 -2068975521 -83057635 -477181827 2036328070
REM
REM Al.pp (a228ffcbdc33ac12a8acef1e350d2b41)
REM 
CELL 1.54180    2.20334    4.92683    5.82949   90.00006  100.89327  102.92093
LATT -1
SFAC Al 
Al     1  0.7121742105868  0.0562038853471  0.8126439857753 1.0
Al     1  0.4621742143884  0.9312038897824  0.4376439888688 1.0
Al     1  0.7121742106276  0.5562038853256  0.3126439859276 1.0
Al     1  0.2121742105507  0.8062038852436  0.0626439857815 1.0
Al     1  0.9621742143642  0.6812038897028  0.6876439890378 1.0
Al     1  0.9621742144130  0.1812038896797  0.1876439892000 1.0
Al     1  0.4621742144575  0.4312038897287  0.9376439892461 1.0
Al     1  0.2121742106119  0.3062038851900  0.5626439861630 1.0
END
