TITL Al-1335257-3591-25 0.0000000089 60.4852769387 -53.2712053114 0 0 8 (P63/mmc) n - 1
REM
REM Run started: at 2024年 08月 28日 星期三 09:21:23 CST in /home/wangxb/wxb/pp3_test/1.1
REM pp3 from code version 0.9.1 bugfix July 2018 build 013d7b7c2542+ Fri, 06 Jul 2018 19:26:36 +0100
REM
REM
REM
REM
REM ./Al.cell (830f3a1d18775956aa944238f1042327)
REM AIRSS Version 0.9.1 bugfix July 2018 build 013d7b7c2542+ Fri, 06 Jul 2018 19:26:36 +0100
REM compiler GCC version 11.3.0
REM options -cpp -imultiarch x86_64-linux-gnu -mtune=generic -march=x86-64 -g -O0 -fpre-include=/usr/include/finclude/math-vector-fortran.h
REM seed -1741410855 438367744 2298667 999121665 1098933054 923952413 -1456983203 -1876387836
REM
REM Al.pp (a228ffcbdc33ac12a8acef1e350d2b41)
REM 
CELL 1.54180    4.21775    3.81639    4.40679   90.00001  105.14154  116.89902
LATT -1
SFAC Al 
Al     1  0.8652518375873  0.5394405071606  0.1388775332282 1.0
Al     1  0.8652518380436  0.0394405072712  0.8888775338376 1.0
Al     1  0.8652518374363  0.5394405068051  0.6388775340071 1.0
Al     1  0.3652518380072  0.4561071932193  0.2638775667202 1.0
Al     1  0.8652518370047  0.0394405066964  0.3888775334677 1.0
Al     1  0.3652518371027  0.9561071925486  0.5138775665604 1.0
Al     1  0.3652518369454  0.4561071928140  0.7638775659750 1.0
Al     1  0.3652518378729  0.9561071934849  0.0138775662038 1.0
END
