TITL Al-1335257-3591-7 -0.0000005255 60.5091856976 -53.2326560925 0 0 8 (Fm-3m) n - 1
REM
REM Run started: at 2024年 08月 28日 星期三 09:21:21 CST in /home/wangxb/wxb/pp3_test/1.1
REM pp3 from code version 0.9.1 bugfix July 2018 build 013d7b7c2542+ Fri, 06 Jul 2018 19:26:36 +0100
REM
REM
REM
REM
REM ./Al.cell (830f3a1d18775956aa944238f1042327)
REM AIRSS Version 0.9.1 bugfix July 2018 build 013d7b7c2542+ Fri, 06 Jul 2018 19:26:36 +0100
REM compiler GCC version 11.3.0
REM options -cpp -imultiarch x86_64-linux-gnu -mtune=generic -march=x86-64 -g -O0 -fpre-include=/usr/include/finclude/math-vector-fortran.h
REM seed -610932355 -2130797598 554879814 -2089552950 -791578108 1065721117 -1102541686 -1436689763
REM
REM Al.pp (a228ffcbdc33ac12a8acef1e350d2b41)
REM 
CELL 1.54180    2.20334    4.92682    5.82950   94.84816   79.10661  102.92096
LATT -1
SFAC Al 
Al     1  0.9009208497387  0.5666285006503  0.8234768342574 1.0
Al     1  0.1509208583702  0.3166284996878  0.0734768384865 1.0
Al     1  0.4009208626325  0.0666284994484  0.3234768373111 1.0
Al     1  0.0259208498028  0.4416284994826  0.4484768400127 1.0
Al     1  0.7759208383892  0.6916285003100  0.1984768361921 1.0
Al     1  0.6509208583570  0.8166285001943  0.5734768329169 1.0
Al     1  0.5259208376777  0.9416285004485  0.9484768384389 1.0
Al     1  0.2759208450320  0.1916284997781  0.6984768423845 1.0
END
