TITL Al-1335257-3591-40 -0.0000000000 60.5091825480 -53.2326560919 0 0 8 (Fm-3m) n - 1
REM
REM Run started: at 2024年 08月 28日 星期三 09:21:24 CST in /home/wangxb/wxb/pp3_test/1.1
REM pp3 from code version 0.9.1 bugfix July 2018 build 013d7b7c2542+ Fri, 06 Jul 2018 19:26:36 +0100
REM
REM
REM
REM
REM ./Al.cell (830f3a1d18775956aa944238f1042327)
REM AIRSS Version 0.9.1 bugfix July 2018 build 013d7b7c2542+ Fri, 06 Jul 2018 19:26:36 +0100
REM compiler GCC version 11.3.0
REM options -cpp -imultiarch x86_64-linux-gnu -mtune=generic -march=x86-64 -g -O0 -fpre-include=/usr/include/finclude/math-vector-fortran.h
REM seed -1030607152 -1741404708 670137113 -802360921 2124402503 1647131972 -468544205 -1877668990
REM
REM Al.pp (a228ffcbdc33ac12a8acef1e350d2b41)
REM 
CELL 1.54180    2.20334    4.92682    5.82950   90.00000  100.89327  102.92095
LATT -1
SFAC Al 
Al     1  0.6775678631854  0.5725377008502  0.0012467121736 1.0
Al     1  0.6775678627992  0.0725377008896  0.5012467118368 1.0
Al     1  0.1775678618854  0.3225376995924  0.2512467130252 1.0
Al     1  0.9275678627030  0.6975376996256  0.3762467127244 1.0
Al     1  0.1775678628745  0.8225376995201  0.7512467135774 1.0
Al     1  0.4275678626088  0.9475376998912  0.1262467123287 1.0
Al     1  0.4275678621437  0.4475376999273  0.6262467120857 1.0
Al     1  0.9275678618002  0.1975376997035  0.8762467122482 1.0
END
