TITL Al-1335257-3591-29 -0.0000000235 60.5091823613 -53.2326560921 0 0 8 (Fm-3m) n - 1
REM
REM Run started: at 2024年 08月 28日 星期三 09:21:23 CST in /home/wangxb/wxb/pp3_test/1.1
REM pp3 from code version 0.9.1 bugfix July 2018 build 013d7b7c2542+ Fri, 06 Jul 2018 19:26:36 +0100
REM
REM
REM
REM
REM ./Al.cell (830f3a1d18775956aa944238f1042327)
REM AIRSS Version 0.9.1 bugfix July 2018 build 013d7b7c2542+ Fri, 06 Jul 2018 19:26:36 +0100
REM compiler GCC version 11.3.0
REM options -cpp -imultiarch x86_64-linux-gnu -mtune=generic -march=x86-64 -g -O0 -fpre-include=/usr/include/finclude/math-vector-fortran.h
REM seed 64603921 668314593 2092865761 888075726 878759158 12208134 683976861 1644852923
REM
REM Al.pp (a228ffcbdc33ac12a8acef1e350d2b41)
REM 
CELL 1.54180    2.20334    4.92683    5.82950   90.00003   79.10667   77.07905
LATT -1
SFAC Al 
Al     1  0.4033508252258  0.3878374130421  0.8006360244512 1.0
Al     1  0.6533508256350  0.2628374122879  0.4256360241294 1.0
Al     1  0.9033508253060  0.6378374107343  0.5506360254497 1.0
Al     1  0.4033508242377  0.8878374144150  0.3006360246685 1.0
Al     1  0.1533508240100  0.5128374133688  0.1756360258959 1.0
Al     1  0.9033508258175  0.1378374117013  0.0506360255168 1.0
Al     1  0.1533508250615  0.0128374114497  0.6756360255929 1.0
Al     1  0.6533508247065  0.7628374130009  0.9256360242956 1.0
END
