TITL Al-1335257-3591-2 0.0000000712 60.5091820859 -53.2326560923 0 0 8 (Fm-3m) n - 1
REM
REM Run started: at 2024年 08月 28日 星期三 09:21:20 CST in /home/wangxb/wxb/pp3_test/1.1
REM pp3 from code version 0.9.1 bugfix July 2018 build 013d7b7c2542+ Fri, 06 Jul 2018 19:26:36 +0100
REM
REM
REM
REM
REM ./Al.cell (830f3a1d18775956aa944238f1042327)
REM AIRSS Version 0.9.1 bugfix July 2018 build 013d7b7c2542+ Fri, 06 Jul 2018 19:26:36 +0100
REM compiler GCC version 11.3.0
REM options -cpp -imultiarch x86_64-linux-gnu -mtune=generic -march=x86-64 -g -O0 -fpre-include=/usr/include/finclude/math-vector-fortran.h
REM seed 248560022 1193784564 1176119050 -497989573 -2095747958 -1186813783 1681937173 -1259516311
REM
REM Al.pp (a228ffcbdc33ac12a8acef1e350d2b41)
REM 
CELL 1.54180    2.20334    4.92682    5.82950   89.99998  100.89331   77.07905
LATT -1
SFAC Al 
Al     1  0.3174969302867  0.9699681996930  0.4707299254352 1.0
Al     1  0.0674969324401  0.5949681998635  0.5957299245365 1.0
Al     1  0.0674969421388  0.0949682001906  0.0957299244392 1.0
Al     1  0.3174969451326  0.4699682000152  0.9707299253426 1.0
Al     1  0.8174969382873  0.2199681995720  0.7207299251613 1.0
Al     1  0.5674969429750  0.8449682006338  0.8457299249582 1.0
Al     1  0.8174969371517  0.7199681996010  0.2207299251256 1.0
Al     1  0.5674969315879  0.3449682004310  0.3457299250013 1.0
END
