TITL Al-1335257-3591-23 -0.0000000205 60.5091826771 -53.2326560922 0 0 8 (Fm-3m) n - 1
REM
REM Run started: at 2024年 08月 28日 星期三 09:21:22 CST in /home/wangxb/wxb/pp3_test/1.1
REM pp3 from code version 0.9.1 bugfix July 2018 build 013d7b7c2542+ Fri, 06 Jul 2018 19:26:36 +0100
REM
REM
REM
REM
REM ./Al.cell (830f3a1d18775956aa944238f1042327)
REM AIRSS Version 0.9.1 bugfix July 2018 build 013d7b7c2542+ Fri, 06 Jul 2018 19:26:36 +0100
REM compiler GCC version 11.3.0
REM options -cpp -imultiarch x86_64-linux-gnu -mtune=generic -march=x86-64 -g -O0 -fpre-include=/usr/include/finclude/math-vector-fortran.h
REM seed 1420725704 1760440680 -1483810639 -276120434 1668948977 942094500 1569670332 -979245552
REM
REM Al.pp (a228ffcbdc33ac12a8acef1e350d2b41)
REM 
CELL 1.54180    3.11599    4.40669    4.92683  116.56505   90.00000   90.00000
LATT -1
SFAC Al 
Al     1  0.9717321621080  0.7791931628154  0.4830459009564 1.0
Al     1  0.9717321620889  0.2791931632247  0.4830459009471 1.0
Al     1  0.4717321879234  0.4041931627571  0.2330459002202 1.0
Al     1  0.4717321879058  0.6541931623211  0.7330458993613 1.0
Al     1  0.4717321877521  0.9041931627878  0.2330459010405 1.0
Al     1  0.9717321620720  0.0291931623092  0.9830458997217 1.0
Al     1  0.4717321879113  0.1541931617966  0.7330458990501 1.0
Al     1  0.9717321622386  0.5291931619882  0.9830458987028 1.0
END
