TITL Al-1335257-3591-38 0.0000000048 60.5091825293 -53.2326560922 0 0 8 (Fm-3m) n - 1
REM
REM Run started: at 2024年 08月 28日 星期三 09:21:24 CST in /home/wangxb/wxb/pp3_test/1.1
REM pp3 from code version 0.9.1 bugfix July 2018 build 013d7b7c2542+ Fri, 06 Jul 2018 19:26:36 +0100
REM
REM
REM
REM
REM ./Al.cell (830f3a1d18775956aa944238f1042327)
REM AIRSS Version 0.9.1 bugfix July 2018 build 013d7b7c2542+ Fri, 06 Jul 2018 19:26:36 +0100
REM compiler GCC version 11.3.0
REM options -cpp -imultiarch x86_64-linux-gnu -mtune=generic -march=x86-64 -g -O0 -fpre-include=/usr/include/finclude/math-vector-fortran.h
REM seed -2030907038 1481154896 -119996305 -2073193681 353102272 721845510 234338883 -278689352
REM
REM Al.pp (a228ffcbdc33ac12a8acef1e350d2b41)
REM 
CELL 1.54180    2.20334    4.40669    6.61003   70.52879   89.99997   89.99990
LATT -1
SFAC Al 
Al     1  0.1729558634425  0.4280692585884  0.7913782787325 1.0
Al     1  0.6729558627363  0.0530692682822  0.0413782715188 1.0
Al     1  0.6729558641355  0.5530692551671  0.0413782797980 1.0
Al     1  0.1729558628545  0.6780692533883  0.2913782728281 1.0
Al     1  0.6729558630084  0.3030692538478  0.5413782730090 1.0
Al     1  0.6729558635554  0.8030692697255  0.5413782782284 1.0
Al     1  0.1729558603173  0.1780692732320  0.2913782758354 1.0
Al     1  0.1729558599500  0.9280692677686  0.7913782700497 1.0
END
