TITL Al-1335257-3591-35 -0.0000000122 60.5091826037 -53.2326560924 0 0 8 (Fm-3m) n - 1
REM
REM Run started: at 2024年 08月 28日 星期三 09:21:24 CST in /home/wangxb/wxb/pp3_test/1.1
REM pp3 from code version 0.9.1 bugfix July 2018 build 013d7b7c2542+ Fri, 06 Jul 2018 19:26:36 +0100
REM
REM
REM
REM
REM ./Al.cell (830f3a1d18775956aa944238f1042327)
REM AIRSS Version 0.9.1 bugfix July 2018 build 013d7b7c2542+ Fri, 06 Jul 2018 19:26:36 +0100
REM compiler GCC version 11.3.0
REM options -cpp -imultiarch x86_64-linux-gnu -mtune=generic -march=x86-64 -g -O0 -fpre-include=/usr/include/finclude/math-vector-fortran.h
REM seed -1168715080 -648711519 1325850731 -696864961 -316740415 -1337316714 858465197 422432920
REM
REM Al.pp (a228ffcbdc33ac12a8acef1e350d2b41)
REM 
CELL 1.54180    3.11600    3.81630    5.82950  102.60438   74.49865  114.09483
LATT -1
SFAC Al 
Al     1  0.0326165884081  0.6039290126353  0.7499349630060 1.0
Al     1  0.7826165873974  0.4789290125804  0.1249349630563 1.0
Al     1  0.2826165901856  0.2289290126137  0.8749349623088 1.0
Al     1  0.7826165874052  0.9789290123737  0.6249349619845 1.0
Al     1  0.2826165848880  0.7289290122970  0.3749349626889 1.0
Al     1  0.0326165867801  0.1039290124119  0.2499349619546 1.0
Al     1  0.5326165897629  0.8539290126968  0.9999349622845 1.0
Al     1  0.5326165851728  0.3539290123911  0.4999349627164 1.0
END
