TITL Al-1335257-3591-13 -0.0000000248 60.5091826539 -53.2326560925 0 0 8 (Fm-3m) n - 1
REM
REM Run started: at 2024年 08月 28日 星期三 09:21:21 CST in /home/wangxb/wxb/pp3_test/1.1
REM pp3 from code version 0.9.1 bugfix July 2018 build 013d7b7c2542+ Fri, 06 Jul 2018 19:26:36 +0100
REM
REM
REM
REM
REM ./Al.cell (830f3a1d18775956aa944238f1042327)
REM AIRSS Version 0.9.1 bugfix July 2018 build 013d7b7c2542+ Fri, 06 Jul 2018 19:26:36 +0100
REM compiler GCC version 11.3.0
REM options -cpp -imultiarch x86_64-linux-gnu -mtune=generic -march=x86-64 -g -O0 -fpre-include=/usr/include/finclude/math-vector-fortran.h
REM seed -1663061648 -1398399338 618774339 1030994913 209911705 -1713856269 550453841 1376654118
REM
REM Al.pp (a228ffcbdc33ac12a8acef1e350d2b41)
REM 
CELL 1.54180    3.81630    3.81630    4.92682  104.96322  104.96322  109.47123
LATT -1
SFAC Al 
Al     1  0.6299717000331  0.6173299118419  0.0838713625121 1.0
Al     1  0.8799716996486  0.8673299119228  0.5838713620521 1.0
Al     1  0.3799717003600  0.3673299127072  0.5838713628799 1.0
Al     1  0.2549717000298  0.7423299133231  0.3338713624260 1.0
Al     1  0.0049717001566  0.4923299128417  0.8338713628780 1.0
Al     1  0.7549717002547  0.2423299123737  0.3338713623923 1.0
Al     1  0.1299717000065  0.1173299128738  0.0838713627517 1.0
Al     1  0.5049716995107  0.9923299121157  0.8338713621078 1.0
END
