TITL Al-1335257-3591-26 -0.0000000032 60.5091824620 -53.2326560915 0 0 8 (Fm-3m) n - 1
REM
REM Run started: at 2024年 08月 28日 星期三 09:21:23 CST in /home/wangxb/wxb/pp3_test/1.1
REM pp3 from code version 0.9.1 bugfix July 2018 build 013d7b7c2542+ Fri, 06 Jul 2018 19:26:36 +0100
REM
REM
REM
REM
REM ./Al.cell (830f3a1d18775956aa944238f1042327)
REM AIRSS Version 0.9.1 bugfix July 2018 build 013d7b7c2542+ Fri, 06 Jul 2018 19:26:36 +0100
REM compiler GCC version 11.3.0
REM options -cpp -imultiarch x86_64-linux-gnu -mtune=generic -march=x86-64 -g -O0 -fpre-include=/usr/include/finclude/math-vector-fortran.h
REM seed -2069694383 -573901452 2063826378 -79763020 1864131341 1682018118 -1922615522 1110856437
REM
REM Al.pp (a228ffcbdc33ac12a8acef1e350d2b41)
REM 
CELL 1.54180    2.20334    4.92683    5.82950   89.99999   79.10662  102.92096
LATT -1
SFAC Al 
Al     1  0.2301851835656  0.0953954206450  0.4556058034297 1.0
Al     1  0.9801851916739  0.9703954295364  0.8306057964210 1.0
Al     1  0.4801851912466  0.2203954289143  0.0806057965837 1.0
Al     1  0.4801851918120  0.7203954298785  0.5806057964596 1.0
Al     1  0.9801851913535  0.4703954291199  0.3306057965029 1.0
Al     1  0.7301851833054  0.3453954204967  0.7056058035951 1.0
Al     1  0.7301851836076  0.8453954208812  0.2056058035372 1.0
Al     1  0.2301851834355  0.5953954205280  0.9556058034708 1.0
END
