TITL Al-1335257-3591-12 -0.0000000090 60.5091826080 -53.2326560923 0 0 8 (Fm-3m) n - 1
REM
REM Run started: at 2024年 08月 28日 星期三 09:21:21 CST in /home/wangxb/wxb/pp3_test/1.1
REM pp3 from code version 0.9.1 bugfix July 2018 build 013d7b7c2542+ Fri, 06 Jul 2018 19:26:36 +0100
REM
REM
REM
REM
REM ./Al.cell (830f3a1d18775956aa944238f1042327)
REM AIRSS Version 0.9.1 bugfix July 2018 build 013d7b7c2542+ Fri, 06 Jul 2018 19:26:36 +0100
REM compiler GCC version 11.3.0
REM options -cpp -imultiarch x86_64-linux-gnu -mtune=generic -march=x86-64 -g -O0 -fpre-include=/usr/include/finclude/math-vector-fortran.h
REM seed 330207625 -1815941051 685677681 1877219279 195717301 421443971 -1116478071 -396085172
REM
REM Al.pp (a228ffcbdc33ac12a8acef1e350d2b41)
REM 
CELL 1.54180    2.20334    4.40669    6.61003   70.52876   90.00000   90.00000
LATT -1
SFAC Al 
Al     1  0.4424466127921  0.8186434884565  0.9215156355640 1.0
Al     1  0.9424466122149  0.4436434873685  0.1715156360976 1.0
Al     1  0.9424466122221  0.6936434858103  0.6715156396682 1.0
Al     1  0.4424466127949  0.3186434887699  0.9215156354752 1.0
Al     1  0.4424466127736  0.5686434874127  0.4215156382212 1.0
Al     1  0.9424466122231  0.1936434867879  0.6715156397357 1.0
Al     1  0.4424466127696  0.0686434865028  0.4215156392925 1.0
Al     1  0.9424466122098  0.9436434888915  0.1715156359455 1.0
END
