TITL Al-1335257-3591-17 -0.0000001149 60.5091831203 -53.2326560924 0 0 8 (Fm-3m) n - 1
REM
REM Run started: at 2024年 08月 28日 星期三 09:21:22 CST in /home/wangxb/wxb/pp3_test/1.1
REM pp3 from code version 0.9.1 bugfix July 2018 build 013d7b7c2542+ Fri, 06 Jul 2018 19:26:36 +0100
REM
REM
REM
REM
REM ./Al.cell (830f3a1d18775956aa944238f1042327)
REM AIRSS Version 0.9.1 bugfix July 2018 build 013d7b7c2542+ Fri, 06 Jul 2018 19:26:36 +0100
REM compiler GCC version 11.3.0
REM options -cpp -imultiarch x86_64-linux-gnu -mtune=generic -march=x86-64 -g -O0 -fpre-include=/usr/include/finclude/math-vector-fortran.h
REM seed 700144515 -941055065 -934918303 492459577 -516017393 -865909892 -2015650040 981713294
REM
REM Al.pp (a228ffcbdc33ac12a8acef1e350d2b41)
REM 
CELL 1.54180    2.20334    4.92683    5.82950   94.84818  100.89338   77.07904
LATT -1
SFAC Al 
Al     1  0.8930980004990  0.4867684124020  0.7190491628409 1.0
Al     1  0.1430979935885  0.7367684125400  0.4690491616388 1.0
Al     1  0.0180980042007  0.6117684124923  0.0940491628381 1.0
Al     1  0.6430980064480  0.2367684123038  0.9690491632471 1.0
Al     1  0.2680980048811  0.8617684124546  0.8440491633848 1.0
Al     1  0.3930979994933  0.9867684125187  0.2190491621037 1.0
Al     1  0.5180979958068  0.1117684125910  0.5940491622214 1.0
Al     1  0.7680979950826  0.3617684126976  0.3440491617251 1.0
END
