TITL Al-1335257-3591-6 -0.0000000260 60.5091827180 -53.2326560923 0 0 8 (Fm-3m) n - 1
REM
REM Run started: at 2024年 08月 28日 星期三 09:21:20 CST in /home/wangxb/wxb/pp3_test/1.1
REM pp3 from code version 0.9.1 bugfix July 2018 build 013d7b7c2542+ Fri, 06 Jul 2018 19:26:36 +0100
REM
REM
REM
REM
REM ./Al.cell (830f3a1d18775956aa944238f1042327)
REM AIRSS Version 0.9.1 bugfix July 2018 build 013d7b7c2542+ Fri, 06 Jul 2018 19:26:36 +0100
REM compiler GCC version 11.3.0
REM options -cpp -imultiarch x86_64-linux-gnu -mtune=generic -march=x86-64 -g -O0 -fpre-include=/usr/include/finclude/math-vector-fortran.h
REM seed -102908168 79626359 1163831247 1013556953 -1423099614 -758485299 862733394 1485068206
REM
REM Al.pp (a228ffcbdc33ac12a8acef1e350d2b41)
REM 
CELL 1.54180    2.20334    4.92682    5.82950   90.00000  100.89334  102.92096
LATT -1
SFAC Al 
Al     1  0.6524180676009  0.7469125927526  0.7852042609295 1.0
Al     1  0.1524180702865  0.4969125983658  0.0352042631374 1.0
Al     1  0.4024180646016  0.1219125942071  0.9102042646198 1.0
Al     1  0.1524180612209  0.9969125826403  0.5352042609969 1.0
Al     1  0.9024180612362  0.8719125887054  0.1602042646737 1.0
Al     1  0.4024180542267  0.6219125759260  0.4102042620542 1.0
Al     1  0.6524180622566  0.2469125828616  0.2852042593774 1.0
Al     1  0.9024180585706  0.3719125845411  0.6602042642110 1.0
END
