TITL Al-1335257-3591-11 -0.0000018630 60.4852815716 -53.2712053114 0 0 8 (P63/mmc) n - 1
REM
REM Run started: at 2024年 08月 28日 星期三 09:21:21 CST in /home/wangxb/wxb/pp3_test/1.1
REM pp3 from code version 0.9.1 bugfix July 2018 build 013d7b7c2542+ Fri, 06 Jul 2018 19:26:36 +0100
REM
REM
REM
REM
REM ./Al.cell (830f3a1d18775956aa944238f1042327)
REM AIRSS Version 0.9.1 bugfix July 2018 build 013d7b7c2542+ Fri, 06 Jul 2018 19:26:36 +0100
REM compiler GCC version 11.3.0
REM options -cpp -imultiarch x86_64-linux-gnu -mtune=generic -march=x86-64 -g -O0 -fpre-include=/usr/include/finclude/math-vector-fortran.h
REM seed 938897981 -1491797789 -1339819080 1565927003 907763509 606441982 275268231 893282378
REM
REM Al.pp (a228ffcbdc33ac12a8acef1e350d2b41)
REM 
CELL 1.54180    4.21775    4.21775    4.40679   74.85845   74.85845  117.01202
LATT -1
SFAC Al 
Al     1  0.2271790796107  0.9604381555999  0.8090307170245 1.0
Al     1  0.2271790782177  0.9604381531299  0.3090307162580 1.0
Al     1  0.6438457444167  0.8771048197362  0.9756973837671 1.0
Al     1  0.7271790773648  0.4604381528501  0.3090307172445 1.0
Al     1  0.7271790807181  0.4604381546603  0.8090307164302 1.0
Al     1  0.1438457466543  0.3771048224444  0.4756973835685 1.0
Al     1  0.6438457478168  0.8771048215264  0.4756973829251 1.0
Al     1  0.1438457452009  0.3771048200530  0.9756973827821 1.0
END
