TITL Al-1335257-3591-39 -0.0000000093 60.5091825977 -53.2326560924 0 0 8 (Fm-3m) n - 1
REM
REM Run started: at 2024年 08月 28日 星期三 09:21:24 CST in /home/wangxb/wxb/pp3_test/1.1
REM pp3 from code version 0.9.1 bugfix July 2018 build 013d7b7c2542+ Fri, 06 Jul 2018 19:26:36 +0100
REM
REM
REM
REM
REM ./Al.cell (830f3a1d18775956aa944238f1042327)
REM AIRSS Version 0.9.1 bugfix July 2018 build 013d7b7c2542+ Fri, 06 Jul 2018 19:26:36 +0100
REM compiler GCC version 11.3.0
REM options -cpp -imultiarch x86_64-linux-gnu -mtune=generic -march=x86-64 -g -O0 -fpre-include=/usr/include/finclude/math-vector-fortran.h
REM seed -691584587 -1770531610 2058432207 -1602475759 -721789172 23953907 -1590704122 619421906
REM
REM Al.pp (a228ffcbdc33ac12a8acef1e350d2b41)
REM 
CELL 1.54180    3.11600    3.11600    6.61003   76.36698   76.36698   90.00000
LATT -1
SFAC Al 
Al     1  0.8922816250297  0.0024980748712  0.4147135249383 1.0
Al     1  0.2672816248821  0.8774980764278  0.6647135251137 1.0
Al     1  0.6422816248754  0.7524980749714  0.9147135250530 1.0
Al     1  0.0172816249579  0.6274980737063  0.1647135248905 1.0
Al     1  0.7672816250316  0.3774980762057  0.6647135251001 1.0
Al     1  0.3922816250122  0.5024980750036  0.4147135249351 1.0
Al     1  0.5172816251360  0.1274980736707  0.1647135248739 1.0
Al     1  0.1422816250751  0.2524980751432  0.9147135250955 1.0
END
