TITL Al-1335257-3591-19 -0.0000002770 60.4852769661 -53.2712053114 0 0 8 (P63/mmc) n - 1
REM
REM Run started: at 2024年 08月 28日 星期三 09:21:22 CST in /home/wangxb/wxb/pp3_test/1.1
REM pp3 from code version 0.9.1 bugfix July 2018 build 013d7b7c2542+ Fri, 06 Jul 2018 19:26:36 +0100
REM
REM
REM
REM
REM ./Al.cell (830f3a1d18775956aa944238f1042327)
REM AIRSS Version 0.9.1 bugfix July 2018 build 013d7b7c2542+ Fri, 06 Jul 2018 19:26:36 +0100
REM compiler GCC version 11.3.0
REM options -cpp -imultiarch x86_64-linux-gnu -mtune=generic -march=x86-64 -g -O0 -fpre-include=/usr/include/finclude/math-vector-fortran.h
REM seed -1017492323 1218920351 -2019705517 -1283223259 -2061495036 1555151590 -531577609 -1702692094
REM
REM Al.pp (a228ffcbdc33ac12a8acef1e350d2b41)
REM 
CELL 1.54180    2.20339    4.21775    6.84975   91.58112   99.25550  105.14154
LATT -1
SFAC Al 
Al     1  0.5943149831571  0.9830390113593  0.0128101499870 1.0
Al     1  0.0526482365787  0.6913723601251  0.2211435000421 1.0
Al     1  0.5526482469706  0.1913723639376  0.7211434997203 1.0
Al     1  0.3026482454557  0.4413723612433  0.9711435001269 1.0
Al     1  0.0943149829785  0.4830390154390  0.5128101494596 1.0
Al     1  0.8026482394680  0.9413723649766  0.4711435003598 1.0
Al     1  0.3443149867820  0.2330390100559  0.2628101500382 1.0
Al     1  0.8443149786093  0.7330390128633  0.7628101502662 1.0
END
