TITL Al-1335257-3591-22 0.0000001899 60.5091816425 -53.2326560924 0 0 8 (Fm-3m) n - 1
REM
REM Run started: at 2024年 08月 28日 星期三 09:21:22 CST in /home/wangxb/wxb/pp3_test/1.1
REM pp3 from code version 0.9.1 bugfix July 2018 build 013d7b7c2542+ Fri, 06 Jul 2018 19:26:36 +0100
REM
REM
REM
REM
REM ./Al.cell (830f3a1d18775956aa944238f1042327)
REM AIRSS Version 0.9.1 bugfix July 2018 build 013d7b7c2542+ Fri, 06 Jul 2018 19:26:36 +0100
REM compiler GCC version 11.3.0
REM options -cpp -imultiarch x86_64-linux-gnu -mtune=generic -march=x86-64 -g -O0 -fpre-include=/usr/include/finclude/math-vector-fortran.h
REM seed -1729044526 501479623 -817814370 -1445883979 -525936753 -364485666 -1165911870 -4843646
REM
REM Al.pp (a228ffcbdc33ac12a8acef1e350d2b41)
REM 
CELL 1.54180    4.40669    3.81630    4.40669   73.22137  119.99999  106.77863
LATT -1
SFAC Al 
Al     1  0.6771159144731  0.8745402741645  0.2594035022960 1.0
Al     1  0.9271159108147  0.3745402736973  0.0094034966448 1.0
Al     1  0.4271159115074  0.3745402738830  0.5094034966078 1.0
Al     1  0.6771159142011  0.8745402759145  0.7594035032749 1.0
Al     1  0.9271159105133  0.3745402762668  0.5094034976189 1.0
Al     1  0.4271159098481  0.3745402760714  0.0094034975890 1.0
Al     1  0.1771159134746  0.8745402756780  0.2594035034794 1.0
Al     1  0.1771159151678  0.8745402743244  0.7594035024891 1.0
END
