TITL Al-1335257-3591-28 0.0000000386 60.5091823596 -53.2326560919 0 0 8 (Fm-3m) n - 1
REM
REM Run started: at 2024年 08月 28日 星期三 09:21:23 CST in /home/wangxb/wxb/pp3_test/1.1
REM pp3 from code version 0.9.1 bugfix July 2018 build 013d7b7c2542+ Fri, 06 Jul 2018 19:26:36 +0100
REM
REM
REM
REM
REM ./Al.cell (830f3a1d18775956aa944238f1042327)
REM AIRSS Version 0.9.1 bugfix July 2018 build 013d7b7c2542+ Fri, 06 Jul 2018 19:26:36 +0100
REM compiler GCC version 11.3.0
REM options -cpp -imultiarch x86_64-linux-gnu -mtune=generic -march=x86-64 -g -O0 -fpre-include=/usr/include/finclude/math-vector-fortran.h
REM seed -649744921 -674761968 -2045147834 -1992490675 -1428034392 -917101371 1140745521 -1118451750
REM
REM Al.pp (a228ffcbdc33ac12a8acef1e350d2b41)
REM 
CELL 1.54180    3.81630    3.81630    4.92682  104.96315  104.96315  109.47128
LATT -1
SFAC Al 
Al     1  0.8802421117911  0.0527649507595  0.1160811998705 1.0
Al     1  0.6302421117689  0.8027649508581  0.6160811999500 1.0
Al     1  0.1302421117717  0.3027649508598  0.6160811999546 1.0
Al     1  0.2552421132281  0.9277649491287  0.8660812000324 1.0
Al     1  0.0052421132096  0.6777649492520  0.3660812001402 1.0
Al     1  0.3802421117913  0.5527649507598  0.1160811998735 1.0
Al     1  0.5052421132062  0.1777649492493  0.3660812001358 1.0
Al     1  0.7552421132330  0.4277649491329  0.8660812000430 1.0
END
