TITL Al-1335257-3591-37 -0.0000000004 60.4852769833 -53.2712053114 0 0 8 (P63/mmc) n - 1
REM
REM Run started: at 2024年 08月 28日 星期三 09:21:24 CST in /home/wangxb/wxb/pp3_test/1.1
REM pp3 from code version 0.9.1 bugfix July 2018 build 013d7b7c2542+ Fri, 06 Jul 2018 19:26:36 +0100
REM
REM
REM
REM
REM ./Al.cell (830f3a1d18775956aa944238f1042327)
REM AIRSS Version 0.9.1 bugfix July 2018 build 013d7b7c2542+ Fri, 06 Jul 2018 19:26:36 +0100
REM compiler GCC version 11.3.0
REM options -cpp -imultiarch x86_64-linux-gnu -mtune=generic -march=x86-64 -g -O0 -fpre-include=/usr/include/finclude/math-vector-fortran.h
REM seed -190252241 -134671384 -514962785 -1919344969 -703402924 1199013325 -970425194 1237382024
REM
REM Al.pp (a228ffcbdc33ac12a8acef1e350d2b41)
REM 
CELL 1.54180    3.59646    4.40679    3.81639   90.00000   90.00000   90.00000
LATT -1
SFAC Al 
Al     1  0.4744229754749  0.6778569904816  0.2285558040770 1.0
Al     1  0.4744229480503  0.9278569973867  0.7285558083218 1.0
Al     1  0.9744229770596  0.4278570100234  0.3952224677870 1.0
Al     1  0.9744229499856  0.1778570031171  0.8952224698154 1.0
Al     1  0.9744229769822  0.9278570092995  0.3952224702049 1.0
Al     1  0.9744229494212  0.6778570020926  0.8952224690164 1.0
Al     1  0.4744229481564  0.4278569974026  0.7285558036829 1.0
Al     1  0.4744229748699  0.1778569901967  0.2285558070946 1.0
END
