TITL Al-1335257-3591-21 -0.0000000187 60.5091826730 -53.2326560924 0 0 8 (Fm-3m) n - 1
REM
REM Run started: at 2024年 08月 28日 星期三 09:21:22 CST in /home/wangxb/wxb/pp3_test/1.1
REM pp3 from code version 0.9.1 bugfix July 2018 build 013d7b7c2542+ Fri, 06 Jul 2018 19:26:36 +0100
REM
REM
REM
REM
REM ./Al.cell (830f3a1d18775956aa944238f1042327)
REM AIRSS Version 0.9.1 bugfix July 2018 build 013d7b7c2542+ Fri, 06 Jul 2018 19:26:36 +0100
REM compiler GCC version 11.3.0
REM options -cpp -imultiarch x86_64-linux-gnu -mtune=generic -march=x86-64 -g -O0 -fpre-include=/usr/include/finclude/math-vector-fortran.h
REM seed 1375254948 355403102 -349173296 104974016 -778968995 -916057515 1467437133 -1582999273
REM
REM Al.pp (a228ffcbdc33ac12a8acef1e350d2b41)
REM 
CELL 1.54180    3.81630    4.40669    3.81630   90.00000   80.40594  106.77865
LATT -1
SFAC Al 
Al     1  0.1991642884237  0.8793788878393  0.6181611746250 1.0
Al     1  0.1991642870412  0.3793788866649  0.6181611758070 1.0
Al     1  0.6991642874114  0.2543788873852  0.3681611739263 1.0
Al     1  0.6991642871358  0.7543788871011  0.3681611751439 1.0
Al     1  0.1991642875499  0.6293788868842  0.1181611761495 1.0
Al     1  0.6991642879921  0.5043788890470  0.8681611741536 1.0
Al     1  0.1991642879034  0.1293788872354  0.1181611748273 1.0
Al     1  0.6991642865425  0.0043788878429  0.8681611753675 1.0
END
