TITL Al-1335257-3591-24 -0.0000000076 60.5091825984 -53.2326560921 0 0 8 (Fm-3m) n - 1
REM
REM Run started: at 2024年 08月 28日 星期三 09:21:23 CST in /home/wangxb/wxb/pp3_test/1.1
REM pp3 from code version 0.9.1 bugfix July 2018 build 013d7b7c2542+ Fri, 06 Jul 2018 19:26:36 +0100
REM
REM
REM
REM
REM ./Al.cell (830f3a1d18775956aa944238f1042327)
REM AIRSS Version 0.9.1 bugfix July 2018 build 013d7b7c2542+ Fri, 06 Jul 2018 19:26:36 +0100
REM compiler GCC version 11.3.0
REM options -cpp -imultiarch x86_64-linux-gnu -mtune=generic -march=x86-64 -g -O0 -fpre-include=/usr/include/finclude/math-vector-fortran.h
REM seed -1016628334 566156121 -759574793 -2023310423 2000024611 668439639 -1920108069 -1960136189
REM
REM Al.pp (a228ffcbdc33ac12a8acef1e350d2b41)
REM 
CELL 1.54180    2.20334    4.92682    5.82950   90.00001   79.10668  102.92096
LATT -1
SFAC Al 
Al     1  0.8096496832370  0.9123967008997  0.4957692999952 1.0
Al     1  0.5596496916840  0.2873966989949  0.3707693001131 1.0
Al     1  0.8096496832960  0.4123967013013  0.9957693000952 1.0
Al     1  0.3096496833160  0.6623967010051  0.2457692998869 1.0
Al     1  0.5596496917154  0.7873966991544  0.8707693001597 1.0
Al     1  0.0596496917040  0.5373966986987  0.6207692999048 1.0
Al     1  0.3096496832846  0.1623967008456  0.7457692998403 1.0
Al     1  0.0596496917630  0.0373966991003  0.1207693000048 1.0
END
