TITL Al-1335257-3591-33 0.0000000577 60.4852767363 -53.2712053114 0 0 8 (P63/mmc) n - 1
REM
REM Run started: at 2024年 08月 28日 星期三 09:21:23 CST in /home/wangxb/wxb/pp3_test/1.1
REM pp3 from code version 0.9.1 bugfix July 2018 build 013d7b7c2542+ Fri, 06 Jul 2018 19:26:36 +0100
REM
REM
REM
REM
REM ./Al.cell (830f3a1d18775956aa944238f1042327)
REM AIRSS Version 0.9.1 bugfix July 2018 build 013d7b7c2542+ Fri, 06 Jul 2018 19:26:36 +0100
REM compiler GCC version 11.3.0
REM options -cpp -imultiarch x86_64-linux-gnu -mtune=generic -march=x86-64 -g -O0 -fpre-include=/usr/include/finclude/math-vector-fortran.h
REM seed -1303844542 -1946561534 -550124582 -1909500240 -805940183 -331056007 -1419391427 449306644
REM
REM Al.pp (a228ffcbdc33ac12a8acef1e350d2b41)
REM 
CELL 1.54180    2.20339    5.24398    5.24398   93.39881   90.00000   90.00000
LATT -1
SFAC Al 
Al     1  0.2080863760917  0.1380957589610  0.2519060659229 1.0
Al     1  0.7080863938163  0.4714290891407  0.4185727354367 1.0
Al     1  0.2080863760988  0.6380957589514  0.7519060658989 1.0
Al     1  0.7080863811042  0.3880957608437  0.0019060645829 1.0
Al     1  0.7080863938383  0.9714290891392  0.9185727353958 1.0
Al     1  0.2080863989821  0.2214290910666  0.6685727340813 1.0
Al     1  0.7080863810811  0.8880957608415  0.5019060646238 1.0
Al     1  0.2080863989875  0.7214290910559  0.1685727340577 1.0
END
