TITL Al-1335257-3591-15 0.0000000040 60.5091825207 -53.2326560924 0 0 8 (Fm-3m) n - 1
REM
REM Run started: at 2024年 08月 28日 星期三 09:21:21 CST in /home/wangxb/wxb/pp3_test/1.1
REM pp3 from code version 0.9.1 bugfix July 2018 build 013d7b7c2542+ Fri, 06 Jul 2018 19:26:36 +0100
REM
REM
REM
REM
REM ./Al.cell (830f3a1d18775956aa944238f1042327)
REM AIRSS Version 0.9.1 bugfix July 2018 build 013d7b7c2542+ Fri, 06 Jul 2018 19:26:36 +0100
REM compiler GCC version 11.3.0
REM options -cpp -imultiarch x86_64-linux-gnu -mtune=generic -march=x86-64 -g -O0 -fpre-include=/usr/include/finclude/math-vector-fortran.h
REM seed -642955108 35180332 -1101101549 -725208269 -407820119 766922341 -137980087 2058167748
REM
REM Al.pp (a228ffcbdc33ac12a8acef1e350d2b41)
REM 
CELL 1.54180    3.11600    3.11600    6.61003   76.36698  103.63302   90.00000
LATT -1
SFAC Al 
Al     1  0.8549690871950  0.3984466864521  0.3259321124183 1.0
Al     1  0.9799690875906  0.7734466868005  0.5759321125712 1.0
Al     1  0.2299690872272  0.5234466879821  0.0759321125900 1.0
Al     1  0.4799690877157  0.2734466882760  0.5759321125700 1.0
Al     1  0.7299690876265  0.0234466867851  0.0759321125773 1.0
Al     1  0.3549690875935  0.8984466884001  0.3259321124104 1.0
Al     1  0.1049690877767  0.1484466872909  0.8259321124267 1.0
Al     1  0.6049690872748  0.6484466880132  0.8259321124362 1.0
END
