TITL Al-1335257-3591-8 -0.0000005936 60.4971976127 -53.2519188553 0 0 8 (R-3m) n - 1
REM
REM Run started: at 2024年 08月 28日 星期三 09:21:21 CST in /home/wangxb/wxb/pp3_test/1.1
REM pp3 from code version 0.9.1 bugfix July 2018 build 013d7b7c2542+ Fri, 06 Jul 2018 19:26:36 +0100
REM
REM
REM
REM
REM ./Al.cell (830f3a1d18775956aa944238f1042327)
REM AIRSS Version 0.9.1 bugfix July 2018 build 013d7b7c2542+ Fri, 06 Jul 2018 19:26:36 +0100
REM compiler GCC version 11.3.0
REM options -cpp -imultiarch x86_64-linux-gnu -mtune=generic -march=x86-64 -g -O0 -fpre-include=/usr/include/finclude/math-vector-fortran.h
REM seed -979559218 348220305 124453907 -438011642 -1162454793 109600805 2021946 1020343710
REM
REM Al.pp (a228ffcbdc33ac12a8acef1e350d2b41)
REM 
CELL 1.54180    2.20337    3.81635    7.30610  100.02728   89.99999   89.99999
LATT -1
SFAC Al 
Al     1  0.7315460297681  0.1541282679710  0.0605431301787 1.0
Al     1  0.2315459678091  0.2374616350073  0.8105431633167 1.0
Al     1  0.2315460221890  0.6541282678148  0.0605431299898 1.0
Al     1  0.7315461733347  0.9874787641058  0.5605947619159 1.0
Al     1  0.2315461293277  0.0708121334247  0.3105947947657 1.0
Al     1  0.7315461205571  0.5708121330095  0.3105947944537 1.0
Al     1  0.7315459759406  0.7374616346938  0.8105431632523 1.0
Al     1  0.2315461810738  0.4874787639732  0.5605947621273 1.0
END
