TITL Al-1335257-3591-27 -0.0000000515 60.4971609081 -53.2519080650 0 0 8 (P63/mmc) n - 1
REM
REM Run started: at 2024年 08月 28日 星期三 09:21:23 CST in /home/wangxb/wxb/pp3_test/1.1
REM pp3 from code version 0.9.1 bugfix July 2018 build 013d7b7c2542+ Fri, 06 Jul 2018 19:26:36 +0100
REM
REM
REM
REM
REM ./Al.cell (830f3a1d18775956aa944238f1042327)
REM AIRSS Version 0.9.1 bugfix July 2018 build 013d7b7c2542+ Fri, 06 Jul 2018 19:26:36 +0100
REM compiler GCC version 11.3.0
REM options -cpp -imultiarch x86_64-linux-gnu -mtune=generic -march=x86-64 -g -O0 -fpre-include=/usr/include/finclude/math-vector-fortran.h
REM seed 803192372 1607272616 595476988 1331494985 -1258462581 417054635 -868195493 1106932221
REM
REM Al.pp (a228ffcbdc33ac12a8acef1e350d2b41)
REM 
CELL 1.54180    2.20337    3.81635    7.52433  104.69065   98.41928   90.00003
LATT -1
SFAC Al 
Al     1  0.5665285448635  0.7613028752145  0.6468782753775 1.0
Al     1  0.3165285325816  0.5113028741984  0.1468782797596 1.0
Al     1  0.9415289373419  0.8029696757194  0.3968782719919 1.0
Al     1  0.4415289368920  0.3029696716953  0.3968782708055 1.0
Al     1  0.0665285455199  0.2613028804596  0.6468782768531 1.0
Al     1  0.1915281353531  0.7196360748919  0.8968782732184 1.0
Al     1  0.8165285328167  0.0113028759288  0.1468782796311 1.0
Al     1  0.6915281346314  0.2196360718921  0.8968782723628 1.0
END
