TITL Al-1335257-3591-36 -0.0000001466 60.4852779211 -53.2712053114 0 0 8 (P63/mmc) n - 1
REM
REM Run started: at 2024年 08月 28日 星期三 09:21:24 CST in /home/wangxb/wxb/pp3_test/1.1
REM pp3 from code version 0.9.1 bugfix July 2018 build 013d7b7c2542+ Fri, 06 Jul 2018 19:26:36 +0100
REM
REM
REM
REM
REM ./Al.cell (830f3a1d18775956aa944238f1042327)
REM AIRSS Version 0.9.1 bugfix July 2018 build 013d7b7c2542+ Fri, 06 Jul 2018 19:26:36 +0100
REM compiler GCC version 11.3.0
REM options -cpp -imultiarch x86_64-linux-gnu -mtune=generic -march=x86-64 -g -O0 -fpre-include=/usr/include/finclude/math-vector-fortran.h
REM seed -1899875310 -1984333706 2129360242 -1949396892 -511111475 -1452634445 2105384388 913038832
REM
REM Al.pp (a228ffcbdc33ac12a8acef1e350d2b41)
REM 
CELL 1.54180    2.20339    5.24398    5.24398   86.60119   90.00001   89.99997
LATT -1
SFAC Al 
Al     1  0.4441450083082  0.2097003779464  0.6762035518378 1.0
Al     1  0.4441450946691  0.1263670470292  0.0928702231904 1.0
Al     1  0.9441450917165  0.8763670456090  0.8428702217568 1.0
Al     1  0.4441450946804  0.6263670470339  0.5928702232291 1.0
Al     1  0.9441450053313  0.4597003794163  0.9262035532326 1.0
Al     1  0.9441450053051  0.9597003794067  0.4262035532388 1.0
Al     1  0.4441450082887  0.7097003779411  0.1762035517882 1.0
Al     1  0.9441450917007  0.3763670456175  0.3428702217263 1.0
END
