TITL Al-1335257-3591-16 -0.0000000003 60.5091825492 -53.2326560925 0 0 8 (Fm-3m) n - 1
REM
REM Run started: at 2024年 08月 28日 星期三 09:21:22 CST in /home/wangxb/wxb/pp3_test/1.1
REM pp3 from code version 0.9.1 bugfix July 2018 build 013d7b7c2542+ Fri, 06 Jul 2018 19:26:36 +0100
REM
REM
REM
REM
REM ./Al.cell (830f3a1d18775956aa944238f1042327)
REM AIRSS Version 0.9.1 bugfix July 2018 build 013d7b7c2542+ Fri, 06 Jul 2018 19:26:36 +0100
REM compiler GCC version 11.3.0
REM options -cpp -imultiarch x86_64-linux-gnu -mtune=generic -march=x86-64 -g -O0 -fpre-include=/usr/include/finclude/math-vector-fortran.h
REM seed 1855721022 2086744647 -578169131 518266362 832447184 -1678751167 -1494111970 -2042784362
REM
REM Al.pp (a228ffcbdc33ac12a8acef1e350d2b41)
REM 
CELL 1.54180    3.11600    4.40669    4.92682   63.43495   90.00000   90.00000
LATT -1
SFAC Al 
Al     1  0.4393401991953  0.4213485661623  0.2477566231233 1.0
Al     1  0.9393401989325  0.7963485634996  0.9977566231214 1.0
Al     1  0.4393401990747  0.6713485634413  0.7477566209732 1.0
Al     1  0.4393402016009  0.1713485598552  0.7477566279837 1.0
Al     1  0.4393402015110  0.9213485611980  0.2477566258385 1.0
Al     1  0.9393402003890  0.2963485626777  0.9977566279221 1.0
Al     1  0.9393402010564  0.5463485585419  0.4977566280321 1.0
Al     1  0.9393401982401  0.0463485646239  0.4977566230057 1.0
END
