TITL Al-1335257-3591-9 0.0000000001 60.5091825470 -53.2326560922 0 0 8 (Fm-3m) n - 1
REM
REM Run started: at 2024年 08月 28日 星期三 09:21:21 CST in /home/wangxb/wxb/pp3_test/1.1
REM pp3 from code version 0.9.1 bugfix July 2018 build 013d7b7c2542+ Fri, 06 Jul 2018 19:26:36 +0100
REM
REM
REM
REM
REM ./Al.cell (830f3a1d18775956aa944238f1042327)
REM AIRSS Version 0.9.1 bugfix July 2018 build 013d7b7c2542+ Fri, 06 Jul 2018 19:26:36 +0100
REM compiler GCC version 11.3.0
REM options -cpp -imultiarch x86_64-linux-gnu -mtune=generic -march=x86-64 -g -O0 -fpre-include=/usr/include/finclude/math-vector-fortran.h
REM seed 280562902 -1722518089 1937779537 1685887857 884563752 -21425221 -376043264 -809745626
REM
REM Al.pp (a228ffcbdc33ac12a8acef1e350d2b41)
REM 
CELL 1.54180    3.11599    3.81630    5.82950  102.60439   74.49866  114.09481
LATT -1
SFAC Al 
Al     1  0.2217929773687  0.4517605999187  0.7874011826813 1.0
Al     1  0.9717929733083  0.8267605999908  0.6624011908743 1.0
Al     1  0.4717929733488  0.0767605999867  0.9124011907891 1.0
Al     1  0.9717929769876  0.3267605995120  0.1624011830368 1.0
Al     1  0.2217929723869  0.9517606006528  0.2874011933790 1.0
Al     1  0.7217929754075  0.7017606002148  0.0374011868997 1.0
Al     1  0.4717929768833  0.5767605994236  0.4124011831571 1.0
Al     1  0.7217929743089  0.2017606003005  0.5374011891827 1.0
END
