TITL Al-1335257-3591-14 0.0000000312 60.5091823449 -53.2326560925 0 0 8 (Fm-3m) n - 1
REM
REM Run started: at 2024年 08月 28日 星期三 09:21:21 CST in /home/wangxb/wxb/pp3_test/1.1
REM pp3 from code version 0.9.1 bugfix July 2018 build 013d7b7c2542+ Fri, 06 Jul 2018 19:26:36 +0100
REM
REM
REM
REM
REM ./Al.cell (830f3a1d18775956aa944238f1042327)
REM AIRSS Version 0.9.1 bugfix July 2018 build 013d7b7c2542+ Fri, 06 Jul 2018 19:26:36 +0100
REM compiler GCC version 11.3.0
REM options -cpp -imultiarch x86_64-linux-gnu -mtune=generic -march=x86-64 -g -O0 -fpre-include=/usr/include/finclude/math-vector-fortran.h
REM seed 1374761365 -2144217258 -1874127038 -555126330 -466927202 -101633252 -1163318801 1137388489
REM
REM Al.pp (a228ffcbdc33ac12a8acef1e350d2b41)
REM 
CELL 1.54180    3.81630    3.81630    4.92682   75.03678  104.96322   70.52878
LATT -1
SFAC Al 
Al     1  0.5196087127174  0.6396957401473  0.6771003377090 1.0
Al     1  0.2696087125701  0.8896957361050  0.1771003379901 1.0
Al     1  0.0196087122152  0.1396957348023  0.6771003372972 1.0
Al     1  0.7696087124525  0.3896957389157  0.1771003370315 1.0
Al     1  0.6446087128224  0.0146957402065  0.9271003377090 1.0
Al     1  0.3946087124348  0.2646957388809  0.4271003370061 1.0
Al     1  0.8946087125332  0.7646957360898  0.4271003379716 1.0
Al     1  0.1446087122545  0.5146957348525  0.9271003372856 1.0
END
