TITL Al-1335257-3591-34 -0.0000005906 60.4852753697 -53.2712053112 0 0 8 (P63/mmc) n - 1
REM
REM Run started: at 2024年 08月 28日 星期三 09:21:24 CST in /home/wangxb/wxb/pp3_test/1.1
REM pp3 from code version 0.9.1 bugfix July 2018 build 013d7b7c2542+ Fri, 06 Jul 2018 19:26:36 +0100
REM
REM
REM
REM
REM ./Al.cell (830f3a1d18775956aa944238f1042327)
REM AIRSS Version 0.9.1 bugfix July 2018 build 013d7b7c2542+ Fri, 06 Jul 2018 19:26:36 +0100
REM compiler GCC version 11.3.0
REM options -cpp -imultiarch x86_64-linux-gnu -mtune=generic -march=x86-64 -g -O0 -fpre-include=/usr/include/finclude/math-vector-fortran.h
REM seed -292527317 -880316076 -100886075 834149160 -1776508223 295999991 56106955 785754595
REM
REM Al.pp (a228ffcbdc33ac12a8acef1e350d2b41)
REM 
CELL 1.54180    4.21775    4.21775    3.81639   90.00002   90.00002  117.01201
LATT -1
SFAC Al 
Al     1  0.4106586282355  0.5783773162573  0.9512827285544 1.0
Al     1  0.4106584265020  0.0783771133809  0.7846161214431 1.0
Al     1  0.1606586235020  0.3283773116360  0.4512827285462 1.0
Al     1  0.9106584264908  0.5783771133564  0.7846161214524 1.0
Al     1  0.9106586282505  0.0783773162295  0.9512827285501 1.0
Al     1  0.1606584217590  0.8283771087616  0.2846161214634 1.0
Al     1  0.6606586235052  0.8283773116266  0.4512827285555 1.0
Al     1  0.6606584217551  0.3283771087517  0.2846161214351 1.0
END
