TITL Al-1335257-3591-5 -0.0000002891 67.8674370321 -46.7576312637 0 0 8 (Cm) n - 1
REM
REM Run started: at 2024年 08月 28日 星期三 09:21:20 CST in /home/wangxb/wxb/pp3_test/1.1
REM pp3 from code version 0.9.1 bugfix July 2018 build 013d7b7c2542+ Fri, 06 Jul 2018 19:26:36 +0100
REM
REM
REM
REM
REM ./Al.cell (830f3a1d18775956aa944238f1042327)
REM AIRSS Version 0.9.1 bugfix July 2018 build 013d7b7c2542+ Fri, 06 Jul 2018 19:26:36 +0100
REM compiler GCC version 11.3.0
REM options -cpp -imultiarch x86_64-linux-gnu -mtune=generic -march=x86-64 -g -O0 -fpre-include=/usr/include/finclude/math-vector-fortran.h
REM seed -1823559297 701614407 -1831908246 -325048052 2021140327 1461772699 -1620471666 -246391312
REM
REM Al.pp (a228ffcbdc33ac12a8acef1e350d2b41)
REM 
CELL 1.54180    3.81396    3.81396    5.53194   83.42571   83.42571  119.95830
LATT -1
SFAC Al 
Al     1  0.4627902869503  0.8971863127423  0.5892089662701 1.0
Al     1  0.0149685093364  0.7831792896608  0.9203489885511 1.0
Al     1  0.9029640694339  0.0062995172429  0.2527305074349 1.0
Al     1  0.1254251525586  0.2286593314120  0.5872393424955 1.0
Al     1  0.2416780229589  0.6760740453324  0.2525289576522 1.0
Al     1  0.7942633049534  0.5598211764779  0.5872393438197 1.0
Al     1  0.5719034964471  0.3373600916111  0.2527305050151 1.0
Al     1  0.3487832573614  0.4493645355207  0.9203489887614 1.0
END
