TITL Al-1335257-3591-3 -0.0000001584 67.7931745306 -46.7226342182 0 0 8 (P-1) n - 1
REM
REM Run started: at 2024年 08月 28日 星期三 09:21:20 CST in /home/wangxb/wxb/pp3_test/1.1
REM pp3 from code version 0.9.1 bugfix July 2018 build 013d7b7c2542+ Fri, 06 Jul 2018 19:26:36 +0100
REM
REM
REM
REM
REM ./Al.cell (830f3a1d18775956aa944238f1042327)
REM AIRSS Version 0.9.1 bugfix July 2018 build 013d7b7c2542+ Fri, 06 Jul 2018 19:26:36 +0100
REM compiler GCC version 11.3.0
REM options -cpp -imultiarch x86_64-linux-gnu -mtune=generic -march=x86-64 -g -O0 -fpre-include=/usr/include/finclude/math-vector-fortran.h
REM seed -940086037 -624270898 869184369 1384459747 298240202 -1927979870 1407140304 1276889253
REM
REM Al.pp (a228ffcbdc33ac12a8acef1e350d2b41)
REM 
CELL 1.54180    3.82009    3.81514    4.88900   82.90264  104.57101   99.32992
LATT -1
SFAC Al 
Al     1  0.2003678732374  0.2044872234192  0.5186765270920 1.0
Al     1  0.3079393410509  0.9849404530018  0.9687268822817 1.0
Al     1  0.8701216841052  0.8677916717460  0.1899024927127 1.0
Al     1  0.6489311836823  0.3144107147805  0.2995495873141 1.0
Al     1  0.5291298411536  0.5383214101167  0.8590797876447 1.0
Al     1  0.4228006256217  0.7556485964766  0.4116673972229 1.0
Al     1  0.9776931516207  0.6482449017597  0.6399528477896 1.0
Al     1  0.7552603995282  0.0970835286995  0.7469619779424 1.0
END
