TITL Al-1335257-3591-10 -0.0000000470 62.4917812104 -50.7305496407 0 0 8 (Cmcm) n - 1
REM
REM Run started: at 2024年 08月 28日 星期三 09:21:21 CST in /home/wangxb/wxb/pp3_test/1.1
REM pp3 from code version 0.9.1 bugfix July 2018 build 013d7b7c2542+ Fri, 06 Jul 2018 19:26:36 +0100
REM
REM
REM
REM
REM ./Al.cell (830f3a1d18775956aa944238f1042327)
REM AIRSS Version 0.9.1 bugfix July 2018 build 013d7b7c2542+ Fri, 06 Jul 2018 19:26:36 +0100
REM compiler GCC version 11.3.0
REM options -cpp -imultiarch x86_64-linux-gnu -mtune=generic -march=x86-64 -g -O0 -fpre-include=/usr/include/finclude/math-vector-fortran.h
REM seed 26062326 958063385 -1644775864 -1869353284 -2101601233 -1222149746 1433675478 1081358267
REM
REM Al.pp (a228ffcbdc33ac12a8acef1e350d2b41)
REM 
CELL 1.54180    2.17825    3.76934    7.95025   90.00005   89.99982  106.79470
LATT -1
SFAC Al 
Al     1  0.7025958587495  0.8475720828149  0.3441802144483 1.0
Al     1  0.4319437799279  0.3062672045900  0.9616907280189 1.0
Al     1  0.9727403528307  0.3878618845065  0.2116907352565 1.0
Al     1  0.8911455826454  0.2246724576022  0.7116907288288 1.0
Al     1  0.7025950398575  0.8475721252215  0.0792012483236 1.0
Al     1  0.4319421691075  0.3062671458974  0.4616907559978 1.0
Al     1  0.1612879018376  0.7649622216726  0.5792012628649 1.0
Al     1  0.1612931150439  0.7649622776948  0.8441802262612 1.0
END
