TITL Al-1335257-3591-31 -0.0000001085 60.5091832314 -53.2326560925 0 0 8 (Fm-3m) n - 1
REM
REM Run started: at 2024年 08月 28日 星期三 09:21:23 CST in /home/wangxb/wxb/pp3_test/1.1
REM pp3 from code version 0.9.1 bugfix July 2018 build 013d7b7c2542+ Fri, 06 Jul 2018 19:26:36 +0100
REM
REM
REM
REM
REM ./Al.cell (830f3a1d18775956aa944238f1042327)
REM AIRSS Version 0.9.1 bugfix July 2018 build 013d7b7c2542+ Fri, 06 Jul 2018 19:26:36 +0100
REM compiler GCC version 11.3.0
REM options -cpp -imultiarch x86_64-linux-gnu -mtune=generic -march=x86-64 -g -O0 -fpre-include=/usr/include/finclude/math-vector-fortran.h
REM seed -37740927 -23843140 644934861 612369873 1071542727 2059622574 -1486519980 -583087899
REM
REM Al.pp (a228ffcbdc33ac12a8acef1e350d2b41)
REM 
CELL 1.54180    2.20334    5.39707    5.39707   70.52876   90.00000   90.00000
LATT -1
SFAC Al 
Al     1  0.3450751498107  0.4848667009681  0.2553890750664 1.0
Al     1  0.8450751524877  0.1098667004535  0.3803890744248 1.0
Al     1  0.8450751480316  0.8598667010917  0.1303890749285 1.0
Al     1  0.3450751528333  0.7348666993657  0.5053890755736 1.0
Al     1  0.3450751487854  0.2348667006056  0.0053890744623 1.0
Al     1  0.3450751485433  0.9848666990020  0.7553890749706 1.0
Al     1  0.8450751492390  0.6098666995753  0.8803890755390 1.0
Al     1  0.8450751502689  0.3598666989381  0.6303890750346 1.0
END
