TITL Al-1335257-3591-1 -0.0000000641 62.2746172334 -51.1878143280 0 0 8 (C2/m) n - 1
REM
REM Run started: at 2024年 08月 28日 星期三 09:21:20 CST in /home/wangxb/wxb/pp3_test/1.1
REM pp3 from code version 0.9.1 bugfix July 2018 build 013d7b7c2542+ Fri, 06 Jul 2018 19:26:36 +0100
REM
REM
REM
REM
REM ./Al.cell (830f3a1d18775956aa944238f1042327)
REM AIRSS Version 0.9.1 bugfix July 2018 build 013d7b7c2542+ Fri, 06 Jul 2018 19:26:36 +0100
REM compiler GCC version 11.3.0
REM options -cpp -imultiarch x86_64-linux-gnu -mtune=generic -march=x86-64 -g -O0 -fpre-include=/usr/include/finclude/math-vector-fortran.h
REM seed 759065345 -223068618 254932198 784783172 375134943 2126030349 -1558426814 2006497581
REM
REM Al.pp (a228ffcbdc33ac12a8acef1e350d2b41)
REM 
CELL 1.54180    2.18514    5.58211    5.34569  102.86245   90.00018   78.71288
LATT -1
SFAC Al 
Al     1  0.5388937246341  0.9738714378626  0.0995441639780 1.0
Al     1  0.3411035888312  0.3694413775814  0.2773121044446 1.0
Al     1  0.2171123750574  0.6174283372123  0.0124063320210 1.0
Al     1  0.7792397977955  0.4931728497928  0.6490681322293 1.0
Al     1  0.0973167123811  0.8570239594028  0.7366173739249 1.0
Al     1  0.6586893893356  0.7342758129738  0.3753331152963 1.0
Al     1  0.4149025100272  0.2218583992695  0.8346384071576 1.0
Al     1  0.9767663019379  0.0981269259048  0.4628823709484 1.0
END
