TITL Al-1335257-3591-20 -0.0000000024 60.5091824736 -53.2326560918 0 0 8 (Fm-3m) n - 1
REM
REM Run started: at 2024年 08月 28日 星期三 09:21:22 CST in /home/wangxb/wxb/pp3_test/1.1
REM pp3 from code version 0.9.1 bugfix July 2018 build 013d7b7c2542+ Fri, 06 Jul 2018 19:26:36 +0100
REM
REM
REM
REM
REM ./Al.cell (830f3a1d18775956aa944238f1042327)
REM AIRSS Version 0.9.1 bugfix July 2018 build 013d7b7c2542+ Fri, 06 Jul 2018 19:26:36 +0100
REM compiler GCC version 11.3.0
REM options -cpp -imultiarch x86_64-linux-gnu -mtune=generic -march=x86-64 -g -O0 -fpre-include=/usr/include/finclude/math-vector-fortran.h
REM seed 921102224 -1122775834 896364549 -476397445 -1178503956 -151105781 348717010 -1703942446
REM
REM Al.pp (a228ffcbdc33ac12a8acef1e350d2b41)
REM 
CELL 1.54180    2.20334    4.40669    6.61003   70.52878   90.00000   90.00000
LATT -1
SFAC Al 
Al     1  0.6934724873146 -0.4302995245670  0.9051715749134 1.0
Al     1  0.6934724871482  0.0697004749938  0.9051715744192 1.0
Al     1  0.1934724873505 -0.5552995249968  0.6551715752378 1.0
Al     1  0.1934724877812  0.1947004750966  0.1551715755373 1.0
Al     1  0.6934724877287  0.3197004752542  0.4051715745354 1.0
Al     1  0.1934724872844 -0.0552995252651  0.6551715754578 1.0
Al     1  0.1934724875839  0.6947004744852  0.1551715751332 1.0
Al     1  0.6934724878085 -0.1802995250009  0.4051715747659 1.0
END
