TITL Al-1335257-3591-18 0.0000000000 60.5091825480 -53.2326560917 0 0 8 (Fm-3m) n - 1
REM
REM Run started: at 2024年 08月 28日 星期三 09:21:22 CST in /home/wangxb/wxb/pp3_test/1.1
REM pp3 from code version 0.9.1 bugfix July 2018 build 013d7b7c2542+ Fri, 06 Jul 2018 19:26:36 +0100
REM
REM
REM
REM
REM ./Al.cell (830f3a1d18775956aa944238f1042327)
REM AIRSS Version 0.9.1 bugfix July 2018 build 013d7b7c2542+ Fri, 06 Jul 2018 19:26:36 +0100
REM compiler GCC version 11.3.0
REM options -cpp -imultiarch x86_64-linux-gnu -mtune=generic -march=x86-64 -g -O0 -fpre-include=/usr/include/finclude/math-vector-fortran.h
REM seed 1529263226 -1623209294 790038623 956315814 1531235576 1636163527 1838420989 1698800102
REM
REM Al.pp (a228ffcbdc33ac12a8acef1e350d2b41)
REM 
CELL 1.54180    3.11599    3.11600    6.23200   90.00000   90.00000   90.00000
LATT -1
SFAC Al 
Al     1  0.6758521279900  0.3066404855420  0.4584073648831 1.0
Al     1  0.1758521283409  0.8066404897410  0.9584073595252 1.0
Al     1  0.1758521281588  0.8066404894085  0.4584073680642 1.0
Al     1  0.6758521281720  0.3066404858747  0.9584073575301 1.0
Al     1  0.6758521218593  0.8066404855916  0.7084073568788 1.0
Al     1  0.1758521219920  0.3066404894581  0.7084073601330 1.0
Al     1  0.1758521218099  0.3066404891252  0.2084073674382 1.0
Al     1  0.6758521216771  0.8066404852589  0.2084073655475 1.0
END
